Default LOCALE: LC_CTYPE=en_US.UTF-8;LC_NUMERIC=it_IT.UTF-8;LC_TIME=en_US.UTF-8;LC_COLLATE=en_US.UTF-8;LC_MONETARY=it_IT.UTF-8;LC_MESSAGES=en_US.UTF-8;LC_PAPER=it_IT.UTF-8;LC_NAME=it_IT.UTF-8;LC_ADDRESS=it_IT.UTF-8;LC_TELEPHONE=it_IT.UTF-8;LC_MEASUREMENT=it_IT.UTF-8;LC_IDENTIFICATION=it_IT.UTF-8

<<< setup, at 0s, took 1,54878e+09s


<<< generate, at 0s, took 0,00412321s

CPXPARAM_TimeLimit                               30
Tried aggregator 2 times.
MIP Presolve eliminated 9 rows and 9 columns.
Aggregator did 10 substitutions.
Reduced MIP has 111 rows, 181 columns, and 614 nonzeros.
Reduced MIP has 90 binaries, 91 generals, 0 SOSs, and 0 indicators.
Presolve time = 0,00 sec. (0,61 ticks)
Found incumbent of value 80,334796 after 0,00 sec. (1,27 ticks)
Probing fixed 7 vars, tightened 0 bounds.
Probing time = 0,00 sec. (0,36 ticks)
Cover probing fixed 0 vars, tightened 63 bounds.
Tried aggregator 1 time.
MIP Presolve eliminated 10 rows and 16 columns.
MIP Presolve modified 112 coefficients.
Reduced MIP has 101 rows, 165 columns, and 565 nonzeros.
Reduced MIP has 83 binaries, 82 generals, 0 SOSs, and 0 indicators.
Presolve time = 0,00 sec. (0,67 ticks)
Probing time = 0,00 sec. (0,30 ticks)
Clique table members: 19.
MIP emphasis: balance optimality and feasibility.
MIP search method: dynamic search.
Parallel mode: deterministic, using up to 4 threads.
Root relaxation solution time = 0,00 sec. (0,50 ticks)

        Nodes                                         Cuts/
   Node  Left     Objective  IInf  Best Integer    Best Bound    ItCnt     Gap

*     0+    0                           80,3348        0,0000           100,00%
      0     0       26,4766    23       80,3348       26,4766       74   67,04%
      0     0       28,1739    38       80,3348      Cuts: 44      100   64,93%
      0     0       33,7451    37       80,3348      Cuts: 26      154   57,99%
      0     0       34,0877    27       80,3348      Cuts: 19      185   57,57%
      0     0       36,7551    36       80,3348      Cuts: 23      234   54,25%
      0     0       36,8833    45       80,3348      Cuts: 29      248   54,09%
      0     0       36,9612    45       80,3348      Cuts: 14      253   53,99%
      0     0       37,1250    46       80,3348      Cuts: 10      266   53,79%
      0     0       37,1267    46       80,3348      Cuts: 12      276   53,78%
      0     0       37,1410    55       80,3348       Cuts: 8      289   53,77%
      0     0       37,1415    56       80,3348       Cuts: 5      294   53,77%
*     0+    0                           38,6881       37,1415             4,00%
      0     0        cutoff             38,6881       38,6881      294    0,00%
Elapsed time = 0,11 sec. (48,03 ticks, tree = 0,01 MB, solutions = 2)

Cover cuts applied:  3
Implied bound cuts applied:  7
Flow cuts applied:  19
Zero-half cuts applied:  13
Lift and project cuts applied:  1
Gomory fractional cuts applied:  1

Root node processing (before b&c):
  Real time             =    0,11 sec. (48,05 ticks)
Parallel b&c, 4 threads:
  Real time             =    0,00 sec. (0,00 ticks)
  Sync time (average)   =    0,00 sec.
  Wait time (average)   =    0,00 sec.
                          ------------
Total (root+branch&cut) =    0,11 sec. (48,05 ticks)

<<< solve, at 0,37s, took 0,106587s


OBJECTIVE: 38.68815
01/29/2019 18:42:33 652
solving time ~= 108.334960938
Done
 [[0 0 8 0 0 0 0 0 0 0]
         [0 0 0 0 0 6 0 0 0 0]
         [0 7 0 0 0 0 0 0 0 0]
         [9 0 0 0 0 0 0 0 0 0]
         [0 0 0 10 0 0 0 0 0 0]
         [0 0 0 0 0 0 5 0 0 0]
         [0 0 0 0 0 0 0 4 0 0]
         [0 0 0 0 0 0 0 0 0 3]
         [0 0 0 0 1 0 0 0 0 0]
         [0 0 0 0 0 0 0 0 2 0]]

<<< post process, at 0,37s, took 0,000583887s

// solution (optimal) with objective 38.6881488544682
// Quality Incumbent solution:
// MILP objective                                 3,8688148854e+01
// MILP solution norm |x| (Total, Max)            6,50000e+01  1,00000e+01
// MILP solution error (Ax=b) (Total, Max)        0,00000e+00  0,00000e+00
// MILP x bound error (Total, Max)                0,00000e+00  0,00000e+00
// MILP x integrality error (Total, Max)          0,00000e+00  0,00000e+00
// MILP slack bound error (Total, Max)            0,00000e+00  0,00000e+00
// 

y = [[0
             0 1 0 0 0 0 0 0 0]
             [0 0 0 0 0 1 0 0 0 0]
             [0 1 0 0 0 0 0 0 0 0]
             [1 0 0 0 0 0 0 0 0 0]
             [0 0 0 1 0 0 0 0 0 0]
             [0 0 0 0 0 0 1 0 0 0]
             [0 0 0 0 0 0 0 1 0 0]
             [0 0 0 0 0 0 0 0 0 1]
             [0 0 0 0 1 0 0 0 0 0]
             [0 0 0 0 0 0 0 0 1 0]];
x = [[0 0 8 0 0 0 0 0 0 0]
             [0 0 0 0 0 6 0 0 0 0]
             [0 7 0 0 0 0 0 0 0 0]
             [9 0 0 0 0 0 0 0 0 0]
             [0 0 0 10 0 0 0 0 0 0]
             [0 0 0 0 0 0 5 0 0 0]
             [0 0 0 0 0 0 0 4 0 0]
             [0 0 0 0 0 0 0 0 0 3]
             [0 0 0 0 1 0 0 0 0 0]
             [0 0 0 0 0 0 0 0 2 0]];

<<< done, at 0,37s, took 0,000403166s

